Route #1: 1 16 57 59 14 29 13 64 1
Route #2: 1 63 62 31 58 4 61 41 1
Route #3: 1 40 43 45 54 37 65 5 15 36 67 1
Route #4: 1 34 48 27 3 19 32 44 33 1
Route #5: 1 23 53 46 55 56 26 22 49 10 1
Route #6: 1 17 42 28 11 39 18 30 60 1
Route #7: 1 7 35 2 50 20 21 1
Route #8: 1 52 25 38 66 24 1
Route #9: 1 51 12 8 47 9 1
Route #10: 1 6 1
cost: 1251
